0 64 65 60 61 52 53 55 54 66 6 9 8 7 46 45 31 44 79 47 78 77 76 75 88 92 89 93 86 90 87 91 26 12 1 13 10 11 37 36 39 38 95 68 67 70 69 3 29 28 15 14 34 33 35 32 42 43 40 41 25 5 97 96 99 98 74 71 72 73 18 19 85 94 81 82 84 83 30 50 51 2 22 21 48 49 20 23 24 80 16 17 27 58 59 57 56 4 62 63 0 